p cnf 21 11
e 1 2 3 0
a 4 5 6 7 0
e 8 9 10 11 12 0
a 13 14 15 0
e 16 0
a 17 0
e 18 19 0
a 20 21 0
1 15 -7 -8 11 0
11 -8 7 -18 -6 0
-13 16 18 -1 6 0
12 -15 13 -18 0
-11 -20 8 10 12 0
-1 6 16 4 0
-20 -7 -13 -1 3 0
-17 9 -19 0
18 15 5 0
14 10 -1 0
1 -5 14 7 8 0
